36
10
85
4 4 4 4 126 126 4 4 4 4 4 4 4 4 4 4 3 3 3 25 25 25 3 3 3 25 25 25 3 3 3 3 3 3 3 3 
0 0 0
0 1 34
0 2 68
0 3 102
0 4 136
0 5 170
0 6 41
0 7 75
0 8 109
0 9 143
0 10 177
0 11 211
0 12 82
0 13 116
0 14 150
0 15 184
0 16 218
0 17 252
0 18 124
0 19 158
0 20 192
0 21 226
0 22 260
0 23 294
0 24 165
0 25 199
0 26 233
0 27 267
0 28 301
0 29 335
0 30 206
0 31 240
0 32 274
0 33 308
0 34 342
0 35 376
1 0 34
1 1 0
1 2 34
1 3 68
1 4 102
1 5 136
1 6 75
1 7 41
1 8 75
1 9 109
1 10 143
1 11 177
1 12 116
1 13 82
1 14 116
1 15 150
1 16 184
1 17 218
1 18 158
1 19 124
1 20 158
1 21 192
1 22 226
1 23 260
1 24 199
1 25 165
1 26 199
1 27 233
1 28 267
1 29 301
1 30 240
1 31 206
1 32 240
1 33 274
1 34 308
1 35 342
2 0 68
2 1 34
2 2 0
2 3 34
2 4 68
2 5 102
2 6 109
2 7 75
2 8 41
2 9 75
2 10 109
2 11 143
2 12 150
2 13 116
2 14 82
2 15 116
2 16 150
2 17 184
2 18 192
2 19 158
2 20 124
2 21 158
2 22 192
2 23 226
2 24 233
2 25 199
2 26 165
2 27 199
2 28 233
2 29 267
2 30 274
2 31 240
2 32 206
2 33 240
2 34 274
2 35 308
3 0 102
3 1 68
3 2 34
3 3 0
3 4 34
3 5 68
3 6 143
3 7 109
3 8 75
3 9 41
3 10 75
3 11 109
3 12 184
3 13 150
3 14 116
3 15 82
3 16 116
3 17 150
3 18 226
3 19 192
3 20 158
3 21 124
3 22 158
3 23 192
3 24 267
3 25 233
3 26 199
3 27 165
3 28 199
3 29 233
3 30 308
3 31 274
3 32 240
3 33 206
3 34 240
3 35 274
4 0 136
4 1 102
4 2 68
4 3 34
4 4 0
4 5 34
4 6 177
4 7 143
4 8 109
4 9 75
4 10 41
4 11 75
4 12 218
4 13 184
4 14 150
4 15 116
4 16 82
4 17 116
4 18 260
4 19 226
4 20 192
4 21 158
4 22 124
4 23 158
4 24 301
4 25 267
4 26 233
4 27 199
4 28 165
4 29 199
4 30 342
4 31 308
4 32 274
4 33 240
4 34 206
4 35 240
5 0 170
5 1 136
5 2 102
5 3 68
5 4 34
5 5 0
5 6 211
5 7 177
5 8 143
5 9 109
5 10 75
5 11 41
5 12 252
5 13 218
5 14 184
5 15 150
5 16 116
5 17 82
5 18 294
5 19 260
5 20 226
5 21 192
5 22 158
5 23 124
5 24 335
5 25 301
5 26 267
5 27 233
5 28 199
5 29 165
5 30 376
5 31 342
5 32 308
5 33 274
5 34 240
5 35 206
6 0 41
6 1 75
6 2 109
6 3 143
6 4 177
6 5 211
6 6 0
6 7 34
6 8 68
6 9 102
6 10 136
6 11 170
6 12 41
6 13 75
6 14 109
6 15 143
6 16 177
6 17 211
6 18 83
6 19 117
6 20 151
6 21 185
6 22 219
6 23 253
6 24 124
6 25 158
6 26 192
6 27 226
6 28 260
6 29 294
6 30 165
6 31 199
6 32 233
6 33 267
6 34 301
6 35 335
7 0 75
7 1 41
7 2 75
7 3 109
7 4 143
7 5 177
7 6 34
7 7 0
7 8 34
7 9 68
7 10 102
7 11 136
7 12 75
7 13 41
7 14 75
7 15 109
7 16 143
7 17 177
7 18 117
7 19 83
7 20 117
7 21 151
7 22 185
7 23 219
7 24 158
7 25 124
7 26 158
7 27 192
7 28 226
7 29 260
7 30 199
7 31 165
7 32 199
7 33 233
7 34 267
7 35 301
8 0 109
8 1 75
8 2 41
8 3 75
8 4 109
8 5 143
8 6 68
8 7 34
8 8 0
8 9 34
8 10 68
8 11 102
8 12 109
8 13 75
8 14 41
8 15 75
8 16 109
8 17 143
8 18 151
8 19 117
8 20 83
8 21 117
8 22 151
8 23 185
8 24 192
8 25 158
8 26 124
8 27 158
8 28 192
8 29 226
8 30 233
8 31 199
8 32 165
8 33 199
8 34 233
8 35 267
9 0 143
9 1 109
9 2 75
9 3 41
9 4 75
9 5 109
9 6 102
9 7 68
9 8 34
9 9 0
9 10 34
9 11 68
9 12 143
9 13 109
9 14 75
9 15 41
9 16 75
9 17 109
9 18 185
9 19 151
9 20 117
9 21 83
9 22 117
9 23 151
9 24 226
9 25 192
9 26 158
9 27 124
9 28 158
9 29 192
9 30 267
9 31 233
9 32 199
9 33 165
9 34 199
9 35 233
10 0 177
10 1 143
10 2 109
10 3 75
10 4 41
10 5 75
10 6 136
10 7 102
10 8 68
10 9 34
10 10 0
10 11 34
10 12 177
10 13 143
10 14 109
10 15 75
10 16 41
10 17 75
10 18 219
10 19 185
10 20 151
10 21 117
10 22 83
10 23 117
10 24 260
10 25 226
10 26 192
10 27 158
10 28 124
10 29 158
10 30 301
10 31 267
10 32 233
10 33 199
10 34 165
10 35 199
11 0 211
11 1 177
11 2 143
11 3 109
11 4 75
11 5 41
11 6 170
11 7 136
11 8 102
11 9 68
11 10 34
11 11 0
11 12 211
11 13 177
11 14 143
11 15 109
11 16 75
11 17 41
11 18 253
11 19 219
11 20 185
11 21 151
11 22 117
11 23 83
11 24 294
11 25 260
11 26 226
11 27 192
11 28 158
11 29 124
11 30 335
11 31 301
11 32 267
11 33 233
11 34 199
11 35 165
12 0 82
12 1 116
12 2 150
12 3 184
12 4 218
12 5 252
12 6 41
12 7 75
12 8 109
12 9 143
12 10 177
12 11 211
12 12 0
12 13 34
12 14 68
12 15 102
12 16 136
12 17 170
12 18 42
12 19 76
12 20 110
12 21 144
12 22 178
12 23 212
12 24 83
12 25 117
12 26 151
12 27 185
12 28 219
12 29 253
12 30 124
12 31 158
12 32 192
12 33 226
12 34 260
12 35 294
13 0 116
13 1 82
13 2 116
13 3 150
13 4 184
13 5 218
13 6 75
13 7 41
13 8 75
13 9 109
13 10 143
13 11 177
13 12 34
13 13 0
13 14 34
13 15 68
13 16 102
13 17 136
13 18 76
13 19 42
13 20 76
13 21 110
13 22 144
13 23 178
13 24 117
13 25 83
13 26 117
13 27 151
13 28 185
13 29 219
13 30 158
13 31 124
13 32 158
13 33 192
13 34 226
13 35 260
14 0 150
14 1 116
14 2 82
14 3 116
14 4 150
14 5 184
14 6 109
14 7 75
14 8 41
14 9 75
14 10 109
14 11 143
14 12 68
14 13 34
14 14 0
14 15 34
14 16 68
14 17 102
14 18 110
14 19 76
14 20 42
14 21 76
14 22 110
14 23 144
14 24 151
14 25 117
14 26 83
14 27 117
14 28 151
14 29 185
14 30 192
14 31 158
14 32 124
14 33 158
14 34 192
14 35 226
15 0 184
15 1 150
15 2 116
15 3 82
15 4 116
15 5 150
15 6 143
15 7 109
15 8 75
15 9 41
15 10 75
15 11 109
15 12 102
15 13 68
15 14 34
15 15 0
15 16 34
15 17 68
15 18 144
15 19 110
15 20 76
15 21 42
15 22 76
15 23 110
15 24 185
15 25 151
15 26 117
15 27 83
15 28 117
15 29 151
15 30 226
15 31 192
15 32 158
15 33 124
15 34 158
15 35 192
16 0 218
16 1 184
16 2 150
16 3 116
16 4 82
16 5 116
16 6 177
16 7 143
16 8 109
16 9 75
16 10 41
16 11 75
16 12 136
16 13 102
16 14 68
16 15 34
16 16 0
16 17 34
16 18 178
16 19 144
16 20 110
16 21 76
16 22 42
16 23 76
16 24 219
16 25 185
16 26 151
16 27 117
16 28 83
16 29 117
16 30 260
16 31 226
16 32 192
16 33 158
16 34 124
16 35 158
17 0 252
17 1 218
17 2 184
17 3 150
17 4 116
17 5 82
17 6 211
17 7 177
17 8 143
17 9 109
17 10 75
17 11 41
17 12 170
17 13 136
17 14 102
17 15 68
17 16 34
17 17 0
17 18 212
17 19 178
17 20 144
17 21 110
17 22 76
17 23 42
17 24 253
17 25 219
17 26 185
17 27 151
17 28 117
17 29 83
17 30 294
17 31 260
17 32 226
17 33 192
17 34 158
17 35 124
18 0 124
18 1 158
18 2 192
18 3 226
18 4 260
18 5 294
18 6 83
18 7 117
18 8 151
18 9 185
18 10 219
18 11 253
18 12 42
18 13 76
18 14 110
18 15 144
18 16 178
18 17 212
18 18 0
18 19 34
18 20 68
18 21 102
18 22 136
18 23 170
18 24 41
18 25 75
18 26 109
18 27 143
18 28 177
18 29 211
18 30 82
18 31 116
18 32 150
18 33 184
18 34 218
18 35 252
19 0 158
19 1 124
19 2 158
19 3 192
19 4 226
19 5 260
19 6 117
19 7 83
19 8 117
19 9 151
19 10 185
19 11 219
19 12 76
19 13 42
19 14 76
19 15 110
19 16 144
19 17 178
19 18 34
19 19 0
19 20 34
19 21 68
19 22 102
19 23 136
19 24 75
19 25 41
19 26 75
19 27 109
19 28 143
19 29 177
19 30 116
19 31 82
19 32 116
19 33 150
19 34 184
19 35 218
20 0 192
20 1 158
20 2 124
20 3 158
20 4 192
20 5 226
20 6 151
20 7 117
20 8 83
20 9 117
20 10 151
20 11 185
20 12 110
20 13 76
20 14 42
20 15 76
20 16 110
20 17 144
20 18 68
20 19 34
20 20 0
20 21 34
20 22 68
20 23 102
20 24 109
20 25 75
20 26 41
20 27 75
20 28 109
20 29 143
20 30 150
20 31 116
20 32 82
20 33 116
20 34 150
20 35 184
21 0 226
21 1 192
21 2 158
21 3 124
21 4 158
21 5 192
21 6 185
21 7 151
21 8 117
21 9 83
21 10 117
21 11 151
21 12 144
21 13 110
21 14 76
21 15 42
21 16 76
21 17 110
21 18 102
21 19 68
21 20 34
21 21 0
21 22 34
21 23 68
21 24 143
21 25 109
21 26 75
21 27 41
21 28 75
21 29 109
21 30 184
21 31 150
21 32 116
21 33 82
21 34 116
21 35 150
22 0 260
22 1 226
22 2 192
22 3 158
22 4 124
22 5 158
22 6 219
22 7 185
22 8 151
22 9 117
22 10 83
22 11 117
22 12 178
22 13 144
22 14 110
22 15 76
22 16 42
22 17 76
22 18 136
22 19 102
22 20 68
22 21 34
22 22 0
22 23 34
22 24 177
22 25 143
22 26 109
22 27 75
22 28 41
22 29 75
22 30 218
22 31 184
22 32 150
22 33 116
22 34 82
22 35 116
23 0 294
23 1 260
23 2 226
23 3 192
23 4 158
23 5 124
23 6 253
23 7 219
23 8 185
23 9 151
23 10 117
23 11 83
23 12 212
23 13 178
23 14 144
23 15 110
23 16 76
23 17 42
23 18 170
23 19 136
23 20 102
23 21 68
23 22 34
23 23 0
23 24 211
23 25 177
23 26 143
23 27 109
23 28 75
23 29 41
23 30 252
23 31 218
23 32 184
23 33 150
23 34 116
23 35 82
24 0 165
24 1 199
24 2 233
24 3 267
24 4 301
24 5 335
24 6 124
24 7 158
24 8 192
24 9 226
24 10 260
24 11 294
24 12 83
24 13 117
24 14 151
24 15 185
24 16 219
24 17 253
24 18 41
24 19 75
24 20 109
24 21 143
24 22 177
24 23 211
24 24 0
24 25 34
24 26 68
24 27 102
24 28 136
24 29 170
24 30 41
24 31 75
24 32 109
24 33 143
24 34 177
24 35 211
25 0 199
25 1 165
25 2 199
25 3 233
25 4 267
25 5 301
25 6 158
25 7 124
25 8 158
25 9 192
25 10 226
25 11 260
25 12 117
25 13 83
25 14 117
25 15 151
25 16 185
25 17 219
25 18 75
25 19 41
25 20 75
25 21 109
25 22 143
25 23 177
25 24 34
25 25 0
25 26 34
25 27 68
25 28 102
25 29 136
25 30 75
25 31 41
25 32 75
25 33 109
25 34 143
25 35 177
26 0 233
26 1 199
26 2 165
26 3 199
26 4 233
26 5 267
26 6 192
26 7 158
26 8 124
26 9 158
26 10 192
26 11 226
26 12 151
26 13 117
26 14 83
26 15 117
26 16 151
26 17 185
26 18 109
26 19 75
26 20 41
26 21 75
26 22 109
26 23 143
26 24 68
26 25 34
26 26 0
26 27 34
26 28 68
26 29 102
26 30 109
26 31 75
26 32 41
26 33 75
26 34 109
26 35 143
27 0 267
27 1 233
27 2 199
27 3 165
27 4 199
27 5 233
27 6 226
27 7 192
27 8 158
27 9 124
27 10 158
27 11 192
27 12 185
27 13 151
27 14 117
27 15 83
27 16 117
27 17 151
27 18 143
27 19 109
27 20 75
27 21 41
27 22 75
27 23 109
27 24 102
27 25 68
27 26 34
27 27 0
27 28 34
27 29 68
27 30 143
27 31 109
27 32 75
27 33 41
27 34 75
27 35 109
28 0 301
28 1 267
28 2 233
28 3 199
28 4 165
28 5 199
28 6 260
28 7 226
28 8 192
28 9 158
28 10 124
28 11 158
28 12 219
28 13 185
28 14 151
28 15 117
28 16 83
28 17 117
28 18 177
28 19 143
28 20 109
28 21 75
28 22 41
28 23 75
28 24 136
28 25 102
28 26 68
28 27 34
28 28 0
28 29 34
28 30 177
28 31 143
28 32 109
28 33 75
28 34 41
28 35 75
29 0 335
29 1 301
29 2 267
29 3 233
29 4 199
29 5 165
29 6 294
29 7 260
29 8 226
29 9 192
29 10 158
29 11 124
29 12 253
29 13 219
29 14 185
29 15 151
29 16 117
29 17 83
29 18 211
29 19 177
29 20 143
29 21 109
29 22 75
29 23 41
29 24 170
29 25 136
29 26 102
29 27 68
29 28 34
29 29 0
29 30 211
29 31 177
29 32 143
29 33 109
29 34 75
29 35 41
30 0 206
30 1 240
30 2 274
30 3 308
30 4 342
30 5 376
30 6 165
30 7 199
30 8 233
30 9 267
30 10 301
30 11 335
30 12 124
30 13 158
30 14 192
30 15 226
30 16 260
30 17 294
30 18 82
30 19 116
30 20 150
30 21 184
30 22 218
30 23 252
30 24 41
30 25 75
30 26 109
30 27 143
30 28 177
30 29 211
30 30 0
30 31 34
30 32 68
30 33 102
30 34 136
30 35 170
31 0 240
31 1 206
31 2 240
31 3 274
31 4 308
31 5 342
31 6 199
31 7 165
31 8 199
31 9 233
31 10 267
31 11 301
31 12 158
31 13 124
31 14 158
31 15 192
31 16 226
31 17 260
31 18 116
31 19 82
31 20 116
31 21 150
31 22 184
31 23 218
31 24 75
31 25 41
31 26 75
31 27 109
31 28 143
31 29 177
31 30 34
31 31 0
31 32 34
31 33 68
31 34 102
31 35 136
32 0 274
32 1 240
32 2 206
32 3 240
32 4 274
32 5 308
32 6 233
32 7 199
32 8 165
32 9 199
32 10 233
32 11 267
32 12 192
32 13 158
32 14 124
32 15 158
32 16 192
32 17 226
32 18 150
32 19 116
32 20 82
32 21 116
32 22 150
32 23 184
32 24 109
32 25 75
32 26 41
32 27 75
32 28 109
32 29 143
32 30 68
32 31 34
32 32 0
32 33 34
32 34 68
32 35 102
33 0 308
33 1 274
33 2 240
33 3 206
33 4 240
33 5 274
33 6 267
33 7 233
33 8 199
33 9 165
33 10 199
33 11 233
33 12 226
33 13 192
33 14 158
33 15 124
33 16 158
33 17 192
33 18 184
33 19 150
33 20 116
33 21 82
33 22 116
33 23 150
33 24 143
33 25 109
33 26 75
33 27 41
33 28 75
33 29 109
33 30 102
33 31 68
33 32 34
33 33 0
33 34 34
33 35 68
34 0 342
34 1 308
34 2 274
34 3 240
34 4 206
34 5 240
34 6 301
34 7 267
34 8 233
34 9 199
34 10 165
34 11 199
34 12 260
34 13 226
34 14 192
34 15 158
34 16 124
34 17 158
34 18 218
34 19 184
34 20 150
34 21 116
34 22 82
34 23 116
34 24 177
34 25 143
34 26 109
34 27 75
34 28 41
34 29 75
34 30 136
34 31 102
34 32 68
34 33 34
34 34 0
34 35 34
35 0 376
35 1 342
35 2 308
35 3 274
35 4 240
35 5 206
35 6 335
35 7 301
35 8 267
35 9 233
35 10 199
35 11 165
35 12 294
35 13 260
35 14 226
35 15 192
35 16 158
35 17 124
35 18 252
35 19 218
35 20 184
35 21 150
35 22 116
35 23 82
35 24 211
35 25 177
35 26 143
35 27 109
35 28 75
35 29 41
35 30 170
35 31 136
35 32 102
35 33 68
35 34 34
35 35 0
